NAME          
ROWS
 N  OBJ
 L  c1
 L  c2
 L  c3
 L  c4
COLUMNS
    MARKER    'MARKER'                 'INTORG'
    x[1]      c1        607
    x[1]      c2        13
    x[1]      c3        860
    x[1]      c4        8
    x[1]      OBJ       -314
    x[2]      c1        927
    x[2]      c2        342
    x[2]      c3        536
    x[2]      c4        670
    x[2]      OBJ       -299
    x[3]      c1        918
    x[3]      c2        361
    x[3]      c3        697
    x[3]      c4        230
    x[3]      OBJ       -25
    x[4]      c1        902
    x[4]      c2        496
    x[4]      c3        96
    x[4]      c4        48
    x[4]      OBJ       -529
    x[5]      c1        507
    x[5]      c2        801
    x[5]      c3        55
    x[5]      c4        155
    x[5]      OBJ       -849
    x[6]      c1        178
    x[6]      c2        127
    x[6]      c3        291
    x[6]      c4        690
    x[6]      OBJ       -654
    x[7]      c1        763
    x[7]      c2        496
    x[7]      c3        202
    x[7]      c4        296
    x[7]      OBJ       -377
    x[8]      c1        694
    x[8]      c2        445
    x[8]      c3        775
    x[8]      c4        624
    x[8]      OBJ       -963
    x[9]      c1        519
    x[9]      c2        372
    x[9]      c3        403
    x[9]      c4        681
    x[9]      OBJ       -772
    x[10]     c1        69
    x[10]     c2        472
    x[10]     c3        449
    x[10]     c4        186
    x[10]     OBJ       -715
    x[11]     c1        743
    x[11]     c2        469
    x[11]     c3        182
    x[11]     c4        612
    x[11]     OBJ       -339
    x[12]     c1        545
    x[12]     c2        731
    x[12]     c3        814
    x[12]     c4        537
    x[12]     OBJ       -976
    x[13]     c1        893
    x[13]     c2        53
    x[13]     c3        336
    x[13]     c4        803
    x[13]     OBJ       -430
    x[14]     c1        155
    x[14]     c2        240
    x[14]     c3        854
    x[14]     c4        725
    x[14]     OBJ       -483
    x[15]     c1        126
    x[15]     c2        258
    x[15]     c3        883
    x[15]     c4        594
    x[15]     OBJ       -940
    x[16]     c1        960
    x[16]     c2        44
    x[16]     c3        492
    x[16]     c4        986
    x[16]     OBJ       -552
    x[17]     c1        167
    x[17]     c2        293
    x[17]     c3        276
    x[17]     c4        727
    x[17]     OBJ       -222
    x[18]     c1        986
    x[18]     c2        868
    x[18]     c3        749
    x[18]     c4        185
    x[18]     OBJ       -189
    x[19]     c1        820
    x[19]     c2        724
    x[19]     c3        359
    x[19]     c4        928
    x[19]     OBJ       -421
    x[20]     c1        982
    x[20]     c2        598
    x[20]     c3        188
    x[20]     c4        377
    x[20]     OBJ       -473
    x[21]     c1        121
    x[21]     c2        720
    x[21]     c3        840
    x[21]     c4        75
    x[21]     OBJ       -511
    x[22]     c1        945
    x[22]     c2        443
    x[22]     c3        298
    x[22]     c4        520
    x[22]     OBJ       -6
    x[23]     c1        661
    x[23]     c2        519
    x[23]     c3        443
    x[23]     c4        918
    x[23]     OBJ       -253
    x[24]     c1        949
    x[24]     c2        537
    x[24]     c3        852
    x[24]     c4        125
    x[24]     OBJ       -596
    x[25]     c1        46
    x[25]     c2        826
    x[25]     c3        878
    x[25]     c4        109
    x[25]     OBJ       -502
    x[26]     c1        156
    x[26]     c2        435
    x[26]     c3        210
    x[26]     c4        369
    x[26]     OBJ       -713
    x[27]     c1        901
    x[27]     c2        305
    x[27]     c3        718
    x[27]     c4        115
    x[27]     OBJ       -744
    x[28]     c1        821
    x[28]     c2        886
    x[28]     c3        633
    x[28]     c4        45
    x[28]     OBJ       -812
    x[29]     c1        440
    x[29]     c2        880
    x[29]     c3        995
    x[29]     c4        645
    x[29]     OBJ       -254
    x[30]     c1        558
    x[30]     c2        474
    x[30]     c3        985
    x[30]     c4        338
    x[30]     OBJ       -29
    x[31]     c1        946
    x[31]     c2        405
    x[31]     c3        531
    x[31]     c4        148
    x[31]     OBJ       -91
    x[32]     c1        230
    x[32]     c2        212
    x[32]     c3        860
    x[32]     c4        154
    x[32]     OBJ       -691
    x[33]     c1        222
    x[33]     c2        640
    x[33]     c3        472
    x[33]     c4        316
    x[33]     OBJ       -161
    x[34]     c1        22
    x[34]     c2        37
    x[34]     c3        929
    x[34]     c4        503
    x[34]     OBJ       -474
    x[35]     c1        254
    x[35]     c2        228
    x[35]     c3        497
    x[35]     c4        545
    x[35]     OBJ       -646
    x[36]     c1        355
    x[36]     c2        171
    x[36]     c3        822
    x[36]     c4        386
    x[36]     OBJ       -151
    x[37]     c1        846
    x[37]     c2        797
    x[37]     c3        146
    x[37]     c4        663
    x[37]     OBJ       -74
    x[38]     c1        177
    x[38]     c2        265
    x[38]     c3        1000
    x[38]     c4        939
    x[38]     OBJ       -30
    x[39]     c1        687
    x[39]     c2        270
    x[39]     c3        464
    x[39]     c4        924
    x[39]     OBJ       -877
    x[40]     c1        327
    x[40]     c2        66
    x[40]     c3        889
    x[40]     c4        164
    x[40]     OBJ       -53
    x[41]     c1        372
    x[41]     c2        290
    x[41]     c3        22
    x[41]     c4        892
    x[41]     OBJ       -201
    x[42]     c1        879
    x[42]     c2        228
    x[42]     c3        748
    x[42]     c4        128
    x[42]     OBJ       -969
    x[43]     c1        639
    x[43]     c2        665
    x[43]     c3        321
    x[43]     c4        741
    x[43]     OBJ       -298
    x[44]     c1        511
    x[44]     c2        673
    x[44]     c3        222
    x[44]     c4        371
    x[44]     OBJ       -719
    x[45]     c1        354
    x[45]     c2        281
    x[45]     c3        625
    x[45]     c4        658
    x[45]     OBJ       -924
    x[46]     c1        927
    x[46]     c2        879
    x[46]     c3        328
    x[46]     c4        541
    x[46]     OBJ       -616
    x[47]     c1        830
    x[47]     c2        781
    x[47]     c3        56
    x[47]     c4        948
    x[47]     OBJ       -783
    x[48]     c1        589
    x[48]     c2        543
    x[48]     c3        663
    x[48]     c4        868
    x[48]     OBJ       -755
    x[49]     c1        779
    x[49]     c2        171
    x[49]     c3        140
    x[49]     c4        685
    x[49]     OBJ       -142
    x[50]     c1        808
    x[50]     c2        485
    x[50]     c3        487
    x[50]     c4        634
    x[50]     OBJ       -60
RHS
    rhs       c1        14406
    rhs       c2        11158
    rhs       c3        13286
    rhs       c4        12264
RANGES
BOUNDS
 BV bounds    x[1]
 BV bounds    x[2]
 BV bounds    x[3]
 BV bounds    x[4]
 BV bounds    x[5]
 BV bounds    x[6]
 BV bounds    x[7]
 BV bounds    x[8]
 BV bounds    x[9]
 BV bounds    x[10]
 BV bounds    x[11]
 BV bounds    x[12]
 BV bounds    x[13]
 BV bounds    x[14]
 BV bounds    x[15]
 BV bounds    x[16]
 BV bounds    x[17]
 BV bounds    x[18]
 BV bounds    x[19]
 BV bounds    x[20]
 BV bounds    x[21]
 BV bounds    x[22]
 BV bounds    x[23]
 BV bounds    x[24]
 BV bounds    x[25]
 BV bounds    x[26]
 BV bounds    x[27]
 BV bounds    x[28]
 BV bounds    x[29]
 BV bounds    x[30]
 BV bounds    x[31]
 BV bounds    x[32]
 BV bounds    x[33]
 BV bounds    x[34]
 BV bounds    x[35]
 BV bounds    x[36]
 BV bounds    x[37]
 BV bounds    x[38]
 BV bounds    x[39]
 BV bounds    x[40]
 BV bounds    x[41]
 BV bounds    x[42]
 BV bounds    x[43]
 BV bounds    x[44]
 BV bounds    x[45]
 BV bounds    x[46]
 BV bounds    x[47]
 BV bounds    x[48]
 BV bounds    x[49]
 BV bounds    x[50]
ENDATA
